30
1 990 1974
2 1404 1542
3 2077 1788
4 48 302
5 1572 468
6 179 2229
7 1803 1941
8 695 1894
9 2982 1833
10 745 1564
11 1763 1937
12 1035 479
13 1859 1105
14 1777 288
15 0 2038
16 55 656
17 438 2541
18 2130 2220
19 20 1037
20 2023 1307
21 1437 128
22 50 282
23 1970 846
24 1336 1320
25 578 707
26 1526 774
27 2501 2250
28 1939 177
29 277 210
30 235 1196
